certificates/rado_a9_c65_N18.cnf
c Rad2 upper bound instance: x1 + 9*x2 - x3 = 65, interval [1,18]
p cnf 18 72
1 8 0
-1 -8 0
1 9 17 0
-1 -9 -17 0
2 8 9 0
-2 -8 -9 0
2 9 18 0
-2 -9 -18 0
1 3 7 0
-1 -3 -7 0
3 8 10 0
-3 -8 -10 0
2 4 7 0
-2 -4 -7 0
4 8 11 0
-4 -8 -11 0
3 5 7 0
-3 -5 -7 0
5 8 12 0
-5 -8 -12 0
4 6 7 0
-4 -6 -7 0
6 8 13 0
-6 -8 -13 0
5 7 0
-5 -7 0
7 8 14 0
-7 -8 -14 0
6 7 8 0
-6 -7 -8 0
8 15 0
-8 -15 0
7 9 0
-7 -9 0
8 9 16 0
-8 -9 -16 0
7 8 10 0
-7 -8 -10 0
8 10 17 0
-8 -10 -17 0
7 9 11 0
-7 -9 -11 0
8 11 18 0
-8 -11 -18 0
1 6 12 0
-1 -6 -12 0
7 10 12 0
-7 -10 -12 0
2 6 13 0
-2 -6 -13 0
7 11 13 0
-7 -11 -13 0
3 6 14 0
-3 -6 -14 0
7 12 14 0
-7 -12 -14 0
4 6 15 0
-4 -6 -15 0
7 13 15 0
-7 -13 -15 0
5 6 16 0
-5 -6 -16 0
7 14 16 0
-7 -14 -16 0
6 17 0
-6 -17 0
7 15 17 0
-7 -15 -17 0
6 7 18 0
-6 -7 -18 0
7 16 18 0
-7 -16 -18 0
