certificates/rado_a9_c65_N18.drat
-16 6 -18 0
16 6 0
d 16 5 6 0
6 -18 0
d -16 6 -18 0
-18 0
16 0
-6 0
17 0
7 0
-15 0
-5 0
-9 0
-14 0
8 0
4 0
2 0
3 0
-1 0
-10 0
0
